100
1000
695
688
677
671
665
662
660
659
656
649
648
646
610
603
598
596
595
594
588
588
587
583
576
575
571
570
568
568
567
556
555
548
541
541
538
537
537
520
519
516
509
503
494
491
484
480
473
463
459
459
453
432
431
428
422
420
405
404
401
391
386
380
376
371
368
364
360
357
357
356
352
346
344
340
338
331
331
329
329
319
315
314
312
294
293
290
283
283
276
264
251
250
248
239
235
233
225
219
218
207
